15
-1 69 51 80 52 34 48 76 17 91 61 18 13 73 98 
69 -1 47 17 47 65 19 76 68 91 36 68 100 93 74 
51 47 -1 94 45 52 2 10 29 4 11 79 96 93 21 
80 17 94 -1 7 20 15 34 59 31 71 29 98 75 71 
52 47 45 7 -1 22 64 24 16 2 74 71 67 39 37 
34 65 52 20 22 -1 77 63 71 100 45 71 2 82 42 
48 19 2 15 64 77 -1 43 10 27 100 69 81 96 32 
76 76 10 34 24 63 43 -1 11 44 43 61 64 81 4 
17 68 29 59 16 71 10 11 -1 59 16 9 20 34 3 
91 91 4 31 2 100 27 44 59 -1 74 97 39 89 41 
61 36 11 71 74 45 100 43 16 74 -1 11 41 83 56 
18 68 79 29 71 71 69 61 9 97 11 -1 78 18 66 
13 100 96 98 67 2 81 64 20 39 41 78 -1 62 32 
73 93 93 75 39 82 96 81 34 89 83 18 62 -1 85 
98 74 21 71 37 42 32 4 3 41 56 66 32 85 -1 
